
  22    4
  10   10   10   10

   0   0   0   0   0   8 2 3 4 5 6 8 10 11 
   4  10  10  10  10   4 20 18 12 7 
   6  10  10  10  10   7 21 19 18 15 14 13 12 
   3  10  10  10  10   5 20 19 16 13 12 
   8  10  10  10  10   3 19 12 9 
   3  10  10  10  10   3 19 12 9 
   7  10  10  10  10   4 21 19 14 13 
   4  10  10  10  10   4 20 18 13 12 
   3  10  10  10  10   2 20 18 
   9  10  10  10  10   1 15 
   2  10  10  10  10   1 13 
   3  10  10  10  10   1 17 
   2  10  10  10  10   1 17 
   4  10  10  10  10   1 17 
   5  10  10  10  10   1 17 
   3  10  10  10  10   1 18 
   5  10  10  10  10   1 22
   8  10  10  10  10   1 22
   1  10  10  10  10   1 22
   1  10  10  10  10   1 22
   9  10  10  10  10   1 22
   0   0   0   0   0   0 
